NAME          
ROWS
 N  OBJ
 L  c1
COLUMNS
    MARKER    'MARKER'                 'INTORG'
    x[1]      c1        820
    x[1]      OBJ       -298
    x[2]      c1        563
    x[2]      OBJ       -761
    x[3]      c1        438
    x[3]      OBJ       -474
    x[4]      c1        200
    x[4]      OBJ       -805
    x[5]      c1        379
    x[5]      OBJ       -649
    x[6]      c1        839
    x[6]      OBJ       -861
    x[7]      c1        355
    x[7]      OBJ       -655
    x[8]      c1        385
    x[8]      OBJ       -378
    x[9]      c1        594
    x[9]      OBJ       -255
    x[10]     c1        89
    x[10]     OBJ       -334
    x[11]     c1        331
    x[11]     OBJ       -560
    x[12]     c1        23
    x[12]     OBJ       -104
    x[13]     c1        795
    x[13]     OBJ       -14
    x[14]     c1        110
    x[14]     OBJ       -452
    x[15]     c1        588
    x[15]     OBJ       -160
    x[16]     c1        138
    x[16]     OBJ       -498
    x[17]     c1        214
    x[17]     OBJ       -619
    x[18]     c1        126
    x[18]     OBJ       -877
    x[19]     c1        585
    x[19]     OBJ       -350
    x[20]     c1        458
    x[20]     OBJ       -688
    x[21]     c1        459
    x[21]     OBJ       -82
    x[22]     c1        937
    x[22]     OBJ       -646
    x[23]     c1        578
    x[23]     OBJ       -872
    x[24]     c1        401
    x[24]     OBJ       -421
    x[25]     c1        715
    x[25]     OBJ       -211
    x[26]     c1        146
    x[26]     OBJ       -768
    x[27]     c1        877
    x[27]     OBJ       -833
    x[28]     c1        660
    x[28]     OBJ       -567
    x[29]     c1        84
    x[29]     OBJ       -242
    x[30]     c1        818
    x[30]     OBJ       -733
RHS
    rhs       c1        6852
RANGES
BOUNDS
 LO bounds    x[1]      0
 PL bounds    x[1]
 LO bounds    x[2]      0
 PL bounds    x[2]
 LO bounds    x[3]      0
 PL bounds    x[3]
 LO bounds    x[4]      0
 PL bounds    x[4]
 LO bounds    x[5]      0
 PL bounds    x[5]
 LO bounds    x[6]      0
 PL bounds    x[6]
 LO bounds    x[7]      0
 PL bounds    x[7]
 LO bounds    x[8]      0
 PL bounds    x[8]
 LO bounds    x[9]      0
 PL bounds    x[9]
 LO bounds    x[10]     0
 PL bounds    x[10]
 LO bounds    x[11]     0
 PL bounds    x[11]
 LO bounds    x[12]     0
 PL bounds    x[12]
 LO bounds    x[13]     0
 PL bounds    x[13]
 LO bounds    x[14]     0
 PL bounds    x[14]
 LO bounds    x[15]     0
 PL bounds    x[15]
 LO bounds    x[16]     0
 PL bounds    x[16]
 LO bounds    x[17]     0
 PL bounds    x[17]
 LO bounds    x[18]     0
 PL bounds    x[18]
 LO bounds    x[19]     0
 PL bounds    x[19]
 LO bounds    x[20]     0
 PL bounds    x[20]
 LO bounds    x[21]     0
 PL bounds    x[21]
 LO bounds    x[22]     0
 PL bounds    x[22]
 LO bounds    x[23]     0
 PL bounds    x[23]
 LO bounds    x[24]     0
 PL bounds    x[24]
 LO bounds    x[25]     0
 PL bounds    x[25]
 LO bounds    x[26]     0
 PL bounds    x[26]
 LO bounds    x[27]     0
 PL bounds    x[27]
 LO bounds    x[28]     0
 PL bounds    x[28]
 LO bounds    x[29]     0
 PL bounds    x[29]
 LO bounds    x[30]     0
 PL bounds    x[30]
ENDATA
